# x 10 10
-0 -0 -0 0 1 0 0 0 0 -0 
1 -0 -0 -0 -0 -0 -0 -0 -0 -0 
-0 -0 0 0 0 0 1 0 0 -0 
-0 -0 -0 1 0 0 0 0 0 -0 
-0 1 -0 -0 -0 -0 -0 -0 -0 -0 
-0 -0 -0 -0 0 0 0 1 0 0 
-0 -0 -0 -0 0 1 0 0 0 -0 
-0 -0 -0 -0 0 0 0 0 -0 1 
-0 -0 1 0 0 0 0 -0 0 0 
-0 -0 0 0 0 0 0 0 1 0 
# s 3 10
-0 16 25 26 52 54 79 109 125 150 
-0 32 33 52 57 86 113 125 150 186 
-0 38 51 57 83 113 139 165 184 213 
# c 1
0
